0 0 0 0
0 1 0 0
0 2 2 0
0 3 0 0
0 4 0 3
0 5 1 7
0 6 1 3
0 7 2 6
0 8 1 6
0 9 0 11
0 10 0 16
0 11 1 13
0 12 0 7
0 13 0 13
0 14 0 6
0 15 1 13
0 16 2 15
0 17 2 11
0 18 0 24
0 19 0 13
0 20 1 16
0 21 1 21
0 22 2 20
0 23 2 20
0 24 0 17
0 25 2 17
0 26 0 24
0 27 0 22
0 28 1 28
0 29 0 28
0 30 0 30
0 31 0 35
